data/lp_files/pEFS/49_2.lp
\ Model foo
\ LP format - for model browsing. Use MPS format to capture full model detail.
Minimize
  z
Subject To
 allocateEach[1]: x[1,1] + x[2,1] + x[3,1] = 1
 allocateEach[2]: x[1,2] + x[2,2] + x[3,2] = 1
 allocateEach[3]: x[1,3] + x[2,3] + x[3,3] = 1
 allocateEach[4]: x[1,4] + x[2,4] + x[3,4] = 1
 allocateEach[5]: x[1,5] + x[2,5] + x[3,5] = 1
 allocateEach[6]: x[1,6] + x[2,6] + x[3,6] = 1
 allocateEach[7]: x[1,7] + x[2,7] + x[3,7] = 1
 allocateEach[8]: x[1,8] + x[2,8] + x[3,8] = 1
 allocateEach[9]: x[1,9] + x[2,9] + x[3,9] = 1
 allocateAllCash: cashProportion[1] + cashProportion[2] + cashProportion[3]
   = 1
 findWorstP[1,2]: z + 0.0248200546041201 cashProportion[1]
   - 0.0248200546041201 cashProportion[2] + 0.1554893687432779 x[1,1]
   + 0.0126251344419624 x[1,2] + 0.0857946554149086 x[1,3]
   + 0.1115578720939853 x[1,4] + 0.1349052701249276 x[1,5]
   + 0.0700256473897576 x[1,6] + 0.1525109621907835 x[1,7]
   + 0.1064283941424671 x[1,8] + 0.1458426408538099 x[1,9]
   - 0.1554893687432779 x[2,1] - 0.0126251344419624 x[2,2]
   - 0.0857946554149086 x[2,3] - 0.1115578720939853 x[2,4]
   - 0.1349052701249276 x[2,5] - 0.0700256473897576 x[2,6]
   - 0.1525109621907835 x[2,7] - 0.1064283941424671 x[2,8]
   - 0.1458426408538099 x[2,9] >= 0
 findWorstP[1,3]: z + 0.0248200546041201 cashProportion[1]
   - 0.0248200546041201 cashProportion[3] + 0.1554893687432779 x[1,1]
   + 0.0126251344419624 x[1,2] + 0.0857946554149086 x[1,3]
   + 0.1115578720939853 x[1,4] + 0.1349052701249276 x[1,5]
   + 0.0700256473897576 x[1,6] + 0.1525109621907835 x[1,7]
   + 0.1064283941424671 x[1,8] + 0.1458426408538099 x[1,9]
   - 0.1554893687432779 x[3,1] - 0.0126251344419624 x[3,2]
   - 0.0857946554149086 x[3,3] - 0.1115578720939853 x[3,4]
   - 0.1349052701249276 x[3,5] - 0.0700256473897576 x[3,6]
   - 0.1525109621907835 x[3,7] - 0.1064283941424671 x[3,8]
   - 0.1458426408538099 x[3,9] >= 0
 findWorstP[2,1]: z - 0.0287312289304321 cashProportion[1]
   + 0.0287312289304321 cashProportion[2] - 0.141223567269384 x[1,1]
   - 0.0611400551639595 x[1,2] - 0.1826731535396874 x[1,3]
   - 0.0664840637450199 x[1,4] - 0.1534630707937481 x[1,5]
   - 0.0314319644498927 x[1,6] - 0.1145992951271836 x[1,7]
   - 0.1123774134232301 x[1,8] - 0.1078761875574624 x[1,9]
   + 0.141223567269384 x[2,1] + 0.0611400551639595 x[2,2]
   + 0.1826731535396874 x[2,3] + 0.0664840637450199 x[2,4]
   + 0.1534630707937481 x[2,5] + 0.0314319644498927 x[2,6]
   + 0.1145992951271836 x[2,7] + 0.1123774134232301 x[2,8]
   + 0.1078761875574624 x[2,9] >= 0
 findWorstP[2,3]: z + 0.0287312289304321 cashProportion[2]
   - 0.0287312289304321 cashProportion[3] + 0.141223567269384 x[2,1]
   + 0.0611400551639595 x[2,2] + 0.1826731535396874 x[2,3]
   + 0.0664840637450199 x[2,4] + 0.1534630707937481 x[2,5]
   + 0.0314319644498927 x[2,6] + 0.1145992951271836 x[2,7]
   + 0.1123774134232301 x[2,8] + 0.1078761875574624 x[2,9]
   - 0.141223567269384 x[3,1] - 0.0611400551639595 x[3,2]
   - 0.1826731535396874 x[3,3] - 0.0664840637450199 x[3,4]
   - 0.1534630707937481 x[3,5] - 0.0314319644498927 x[3,6]
   - 0.1145992951271836 x[3,7] - 0.1123774134232301 x[3,8]
   - 0.1078761875574624 x[3,9] >= 0
 findWorstP[3,1]: z - 0.0326961222399023 cashProportion[1]
   + 0.0326961222399023 cashProportion[3] - 0.1814198836018048 x[1,1]
   - 0.0689888179261939 x[1,2] - 0.0409137476295311 x[1,3]
   - 0.2172112387470846 x[1,4] - 0.0759639906707064 x[1,5]
   - 0.1663796673714497 x[1,6] - 0.0983935305272794 x[1,7]
   - 0.0714955206312531 x[1,8] - 0.0465374806547943 x[1,9]
   + 0.1814198836018048 x[3,1] + 0.0689888179261939 x[3,2]
   + 0.0409137476295311 x[3,3] + 0.2172112387470846 x[3,4]
   + 0.0759639906707064 x[3,5] + 0.1663796673714497 x[3,6]
   + 0.0983935305272794 x[3,7] + 0.0714955206312531 x[3,8]
   + 0.0465374806547943 x[3,9] >= 0
 findWorstP[3,2]: z - 0.0326961222399023 cashProportion[2]
   + 0.0326961222399023 cashProportion[3] - 0.1814198836018048 x[2,1]
   - 0.0689888179261939 x[2,2] - 0.0409137476295311 x[2,3]
   - 0.2172112387470846 x[2,4] - 0.0759639906707064 x[2,5]
   - 0.1663796673714497 x[2,6] - 0.0983935305272794 x[2,7]
   - 0.0714955206312531 x[2,8] - 0.0465374806547943 x[2,9]
   + 0.1814198836018048 x[3,1] + 0.0689888179261939 x[3,2]
   + 0.0409137476295311 x[3,3] + 0.2172112387470846 x[3,4]
   + 0.0759639906707064 x[3,5] + 0.1663796673714497 x[3,6]
   + 0.0983935305272794 x[3,7] + 0.0714955206312531 x[3,8]
   + 0.0465374806547943 x[3,9] >= 0
Bounds
 z <= 1
 -infinity <= cashProportion[1] <= 1
 -infinity <= cashProportion[2] <= 1
 -infinity <= cashProportion[3] <= 1
Binaries
 x[1,1] x[1,2] x[1,3] x[1,4] x[1,5] x[1,6] x[1,7] x[1,8] x[1,9] x[2,1]
 x[2,2] x[2,3] x[2,4] x[2,5] x[2,6] x[2,7] x[2,8] x[2,9] x[3,1] x[3,2]
 x[3,3] x[3,4] x[3,5] x[3,6] x[3,7] x[3,8] x[3,9]
End
