data/mps_files/pEFS/49_2.mps
NAME foo
ROWS
 N  OBJ
 E  allocateEach[1]
 E  allocateEach[2]
 E  allocateEach[3]
 E  allocateEach[4]
 E  allocateEach[5]
 E  allocateEach[6]
 E  allocateEach[7]
 E  allocateEach[8]
 E  allocateEach[9]
 E  allocateAllCash
 G  findWorstP[1,2]
 G  findWorstP[1,3]
 G  findWorstP[2,1]
 G  findWorstP[2,3]
 G  findWorstP[3,1]
 G  findWorstP[3,2]
COLUMNS
    z         OBJ       1
    z         findWorstP[1,2]  1
    z         findWorstP[1,3]  1
    z         findWorstP[2,1]  1
    z         findWorstP[2,3]  1
    z         findWorstP[3,1]  1
    z         findWorstP[3,2]  1
    cashProportion[1]  allocateAllCash  1
    cashProportion[1]  findWorstP[1,2]  2.4820054604120130e-02
    cashProportion[1]  findWorstP[1,3]  2.4820054604120130e-02
    cashProportion[1]  findWorstP[2,1]  -2.8731228930432118e-02
    cashProportion[1]  findWorstP[3,1]  -3.2696122239902342e-02
    cashProportion[2]  allocateAllCash  1
    cashProportion[2]  findWorstP[1,2]  -2.4820054604120130e-02
    cashProportion[2]  findWorstP[2,1]  2.8731228930432118e-02
    cashProportion[2]  findWorstP[2,3]  2.8731228930432118e-02
    cashProportion[2]  findWorstP[3,2]  -3.2696122239902342e-02
    cashProportion[3]  allocateAllCash  1
    cashProportion[3]  findWorstP[1,3]  -2.4820054604120130e-02
    cashProportion[3]  findWorstP[2,3]  -2.8731228930432118e-02
    cashProportion[3]  findWorstP[3,1]  3.2696122239902342e-02
    cashProportion[3]  findWorstP[3,2]  3.2696122239902342e-02
    MARKER    'MARKER'                 'INTORG'
    x[1,1]    allocateEach[1]  1
    x[1,1]    findWorstP[1,2]  1.5548936874327790e-01
    x[1,1]    findWorstP[1,3]  1.5548936874327790e-01
    x[1,1]    findWorstP[2,1]  -1.4122356726938398e-01
    x[1,1]    findWorstP[3,1]  -1.8141988360180480e-01
    x[1,2]    allocateEach[2]  1
    x[1,2]    findWorstP[1,2]  1.2625134441962439e-02
    x[1,2]    findWorstP[1,3]  1.2625134441962439e-02
    x[1,2]    findWorstP[2,1]  -6.1140055163959532e-02
    x[1,2]    findWorstP[3,1]  -6.8988817926193935e-02
    x[1,3]    allocateEach[3]  1
    x[1,3]    findWorstP[1,2]  8.5794655414908563e-02
    x[1,3]    findWorstP[1,3]  8.5794655414908563e-02
    x[1,3]    findWorstP[2,1]  -1.8267315353968738e-01
    x[1,3]    findWorstP[3,1]  -4.0913747629531129e-02
    x[1,4]    allocateEach[4]  1
    x[1,4]    findWorstP[1,2]  1.1155787209398527e-01
    x[1,4]    findWorstP[1,3]  1.1155787209398527e-01
    x[1,4]    findWorstP[2,1]  -6.6484063745019917e-02
    x[1,4]    findWorstP[3,1]  -2.1721123874708456e-01
    x[1,5]    allocateEach[5]  1
    x[1,5]    findWorstP[1,2]  1.3490527012492759e-01
    x[1,5]    findWorstP[1,3]  1.3490527012492759e-01
    x[1,5]    findWorstP[2,1]  -1.5346307079374807e-01
    x[1,5]    findWorstP[3,1]  -7.5963990670706430e-02
    x[1,6]    allocateEach[6]  1
    x[1,6]    findWorstP[1,2]  7.0025647389757584e-02
    x[1,6]    findWorstP[1,3]  7.0025647389757584e-02
    x[1,6]    findWorstP[2,1]  -3.1431964449892734e-02
    x[1,6]    findWorstP[3,1]  -1.6637966737144971e-01
    x[1,7]    allocateEach[7]  1
    x[1,7]    findWorstP[1,2]  1.5251096219078347e-01
    x[1,7]    findWorstP[1,3]  1.5251096219078347e-01
    x[1,7]    findWorstP[2,1]  -1.1459929512718357e-01
    x[1,7]    findWorstP[3,1]  -9.8393530527279449e-02
    x[1,8]    allocateEach[8]  1
    x[1,8]    findWorstP[1,2]  1.0642839414246710e-01
    x[1,8]    findWorstP[1,3]  1.0642839414246710e-01
    x[1,8]    findWorstP[2,1]  -1.1237741342323014e-01
    x[1,8]    findWorstP[3,1]  -7.1495520631253126e-02
    x[1,9]    allocateEach[9]  1
    x[1,9]    findWorstP[1,2]  1.4584264085380985e-01
    x[1,9]    findWorstP[1,3]  1.4584264085380985e-01
    x[1,9]    findWorstP[2,1]  -1.0787618755746245e-01
    x[1,9]    findWorstP[3,1]  -4.6537480654794329e-02
    x[2,1]    allocateEach[1]  1
    x[2,1]    findWorstP[1,2]  -1.5548936874327790e-01
    x[2,1]    findWorstP[2,1]  1.4122356726938398e-01
    x[2,1]    findWorstP[2,3]  1.4122356726938398e-01
    x[2,1]    findWorstP[3,2]  -1.8141988360180480e-01
    x[2,2]    allocateEach[2]  1
    x[2,2]    findWorstP[1,2]  -1.2625134441962439e-02
    x[2,2]    findWorstP[2,1]  6.1140055163959532e-02
    x[2,2]    findWorstP[2,3]  6.1140055163959532e-02
    x[2,2]    findWorstP[3,2]  -6.8988817926193935e-02
    x[2,3]    allocateEach[3]  1
    x[2,3]    findWorstP[1,2]  -8.5794655414908563e-02
    x[2,3]    findWorstP[2,1]  1.8267315353968738e-01
    x[2,3]    findWorstP[2,3]  1.8267315353968738e-01
    x[2,3]    findWorstP[3,2]  -4.0913747629531129e-02
    x[2,4]    allocateEach[4]  1
    x[2,4]    findWorstP[1,2]  -1.1155787209398527e-01
    x[2,4]    findWorstP[2,1]  6.6484063745019917e-02
    x[2,4]    findWorstP[2,3]  6.6484063745019917e-02
    x[2,4]    findWorstP[3,2]  -2.1721123874708456e-01
    x[2,5]    allocateEach[5]  1
    x[2,5]    findWorstP[1,2]  -1.3490527012492759e-01
    x[2,5]    findWorstP[2,1]  1.5346307079374807e-01
    x[2,5]    findWorstP[2,3]  1.5346307079374807e-01
    x[2,5]    findWorstP[3,2]  -7.5963990670706430e-02
    x[2,6]    allocateEach[6]  1
    x[2,6]    findWorstP[1,2]  -7.0025647389757584e-02
    x[2,6]    findWorstP[2,1]  3.1431964449892734e-02
    x[2,6]    findWorstP[2,3]  3.1431964449892734e-02
    x[2,6]    findWorstP[3,2]  -1.6637966737144971e-01
    x[2,7]    allocateEach[7]  1
    x[2,7]    findWorstP[1,2]  -1.5251096219078347e-01
    x[2,7]    findWorstP[2,1]  1.1459929512718357e-01
    x[2,7]    findWorstP[2,3]  1.1459929512718357e-01
    x[2,7]    findWorstP[3,2]  -9.8393530527279449e-02
    x[2,8]    allocateEach[8]  1
    x[2,8]    findWorstP[1,2]  -1.0642839414246710e-01
    x[2,8]    findWorstP[2,1]  1.1237741342323014e-01
    x[2,8]    findWorstP[2,3]  1.1237741342323014e-01
    x[2,8]    findWorstP[3,2]  -7.1495520631253126e-02
    x[2,9]    allocateEach[9]  1
    x[2,9]    findWorstP[1,2]  -1.4584264085380985e-01
    x[2,9]    findWorstP[2,1]  1.0787618755746245e-01
    x[2,9]    findWorstP[2,3]  1.0787618755746245e-01
    x[2,9]    findWorstP[3,2]  -4.6537480654794329e-02
    x[3,1]    allocateEach[1]  1
    x[3,1]    findWorstP[1,3]  -1.5548936874327790e-01
    x[3,1]    findWorstP[2,3]  -1.4122356726938398e-01
    x[3,1]    findWorstP[3,1]  1.8141988360180480e-01
    x[3,1]    findWorstP[3,2]  1.8141988360180480e-01
    x[3,2]    allocateEach[2]  1
    x[3,2]    findWorstP[1,3]  -1.2625134441962439e-02
    x[3,2]    findWorstP[2,3]  -6.1140055163959532e-02
    x[3,2]    findWorstP[3,1]  6.8988817926193935e-02
    x[3,2]    findWorstP[3,2]  6.8988817926193935e-02
    x[3,3]    allocateEach[3]  1
    x[3,3]    findWorstP[1,3]  -8.5794655414908563e-02
    x[3,3]    findWorstP[2,3]  -1.8267315353968738e-01
    x[3,3]    findWorstP[3,1]  4.0913747629531129e-02
    x[3,3]    findWorstP[3,2]  4.0913747629531129e-02
    x[3,4]    allocateEach[4]  1
    x[3,4]    findWorstP[1,3]  -1.1155787209398527e-01
    x[3,4]    findWorstP[2,3]  -6.6484063745019917e-02
    x[3,4]    findWorstP[3,1]  2.1721123874708456e-01
    x[3,4]    findWorstP[3,2]  2.1721123874708456e-01
    x[3,5]    allocateEach[5]  1
    x[3,5]    findWorstP[1,3]  -1.3490527012492759e-01
    x[3,5]    findWorstP[2,3]  -1.5346307079374807e-01
    x[3,5]    findWorstP[3,1]  7.5963990670706430e-02
    x[3,5]    findWorstP[3,2]  7.5963990670706430e-02
    x[3,6]    allocateEach[6]  1
    x[3,6]    findWorstP[1,3]  -7.0025647389757584e-02
    x[3,6]    findWorstP[2,3]  -3.1431964449892734e-02
    x[3,6]    findWorstP[3,1]  1.6637966737144971e-01
    x[3,6]    findWorstP[3,2]  1.6637966737144971e-01
    x[3,7]    allocateEach[7]  1
    x[3,7]    findWorstP[1,3]  -1.5251096219078347e-01
    x[3,7]    findWorstP[2,3]  -1.1459929512718357e-01
    x[3,7]    findWorstP[3,1]  9.8393530527279449e-02
    x[3,7]    findWorstP[3,2]  9.8393530527279449e-02
    x[3,8]    allocateEach[8]  1
    x[3,8]    findWorstP[1,3]  -1.0642839414246710e-01
    x[3,8]    findWorstP[2,3]  -1.1237741342323014e-01
    x[3,8]    findWorstP[3,1]  7.1495520631253126e-02
    x[3,8]    findWorstP[3,2]  7.1495520631253126e-02
    x[3,9]    allocateEach[9]  1
    x[3,9]    findWorstP[1,3]  -1.4584264085380985e-01
    x[3,9]    findWorstP[2,3]  -1.0787618755746245e-01
    x[3,9]    findWorstP[3,1]  4.6537480654794329e-02
    x[3,9]    findWorstP[3,2]  4.6537480654794329e-02
    MARKER    'MARKER'                 'INTEND'
RHS
    RHS1      allocateEach[1]  1
    RHS1      allocateEach[2]  1
    RHS1      allocateEach[3]  1
    RHS1      allocateEach[4]  1
    RHS1      allocateEach[5]  1
    RHS1      allocateEach[6]  1
    RHS1      allocateEach[7]  1
    RHS1      allocateEach[8]  1
    RHS1      allocateEach[9]  1
    RHS1      allocateAllCash  1
BOUNDS
 UP BND1      z         1
 MI BND1      cashProportion[1]
 UP BND1      cashProportion[1]  1
 MI BND1      cashProportion[2]
 UP BND1      cashProportion[2]  1
 MI BND1      cashProportion[3]
 UP BND1      cashProportion[3]  1
 BV BND1      x[1,1]  
 BV BND1      x[1,2]  
 BV BND1      x[1,3]  
 BV BND1      x[1,4]  
 BV BND1      x[1,5]  
 BV BND1      x[1,6]  
 BV BND1      x[1,7]  
 BV BND1      x[1,8]  
 BV BND1      x[1,9]  
 BV BND1      x[2,1]  
 BV BND1      x[2,2]  
 BV BND1      x[2,3]  
 BV BND1      x[2,4]  
 BV BND1      x[2,5]  
 BV BND1      x[2,6]  
 BV BND1      x[2,7]  
 BV BND1      x[2,8]  
 BV BND1      x[2,9]  
 BV BND1      x[3,1]  
 BV BND1      x[3,2]  
 BV BND1      x[3,3]  
 BV BND1      x[3,4]  
 BV BND1      x[3,5]  
 BV BND1      x[3,6]  
 BV BND1      x[3,7]  
 BV BND1      x[3,8]  
 BV BND1      x[3,9]  
ENDATA
